Translating instance to solver...

Set parameter TimeLimit to value 28800
Gurobi Optimizer version 11.0.2 build v11.0.2rc0 (linux64 - "Ubuntu 22.04.4 LTS")

CPU model: Intel(R) Xeon(R) Gold 5120 CPU @ 2.20GHz, instruction set [SSE2|AVX|AVX2|AVX512]
Thread count: 28 physical cores, 56 logical processors, using up to 28 threads

Academic license 2463511 - for non-commercial use only - registered to lu___@cefet-rj.br
Optimize a model with 4615 rows, 3173 columns and 12057 nonzeros
Model fingerprint: 0xc3c1e6d0
Variable types: 1 continuous, 3172 integer (3160 binary)
Coefficient statistics:
  Matrix range     [1e+00, 1e+05]
  Objective range  [3e-01, 8e-01]
  Bounds range     [1e+00, 8e+00]
  RHS range        [1e+00, 1e+01]
Presolve removed 4023 rows and 2890 columns
Presolve time: 0.06s
Presolved: 592 rows, 283 columns, 2196 nonzeros
Variable types: 0 continuous, 283 integer (272 binary)

Root relaxation: objective 6.117820e-01, 73 iterations, 0.00 seconds (0.00 work units)

    Nodes    |    Current Node    |     Objective Bounds      |     Work
 Expl Unexpl |  Obj  Depth IntInf | Incumbent    BestBd   Gap | It/Node Time

     0     0    0.61178    0    8          -    0.61178      -     -    0s
H    0     0                       0.6117820    0.61178  0.00%     -    0s

Cutting planes:
  Learned: 1
  Gomory: 2
  Cover: 3
  Implied bound: 2
  Clique: 5
  Zero half: 1
  RLT: 2

Explored 1 nodes (73 simplex iterations) in 0.12 seconds (0.06 work units)
Thread count was 28 (of 56 available processors)

Solution count 1: 0.611782 

Optimal solution found (tolerance 1.00e-04)
Best objective 6.117820000000e-01, best bound 6.117820000000e-01, gap 0.0000%

Solver Wallclock Time (for this epsilon): 0.11548614501953125 s
Python wallclock Time (for this epsilon): 0.45184326171875 s


Total Elapsed Time (since program call): 0.5223314762115479 s

Results:

I = 0.611782 mA
C = 9.0 points
C ~= 3.6 km^2

Minimum Epsilon for this instance = 9
Maximum Epsilon for this instance = 96

Current Epsilon = 9


Preprocessing Time (for this epsilon): 0.0017285346984863281 s


Updated solution vectors:
sol_I = [-0.611782]
sol_C = [9.0]
sol_eps = [9]
sol_gap = [0.0]
